p cnf 39 197
1 2 0
3 2 0
4 2 0
-1 -3 -4 -2 0
-5 6 0
7 8 9 10 11 12 13 14 15 16 17 18 19 20 21 22 23 24 25 26 27 28 29 30 31 32 33 34 -2 6 0
5 -7 -6 0
5 -8 -6 0
5 -9 -6 0
5 -10 -6 0
5 -11 -6 0
5 -12 -6 0
5 -13 -6 0
5 -14 -6 0
5 -15 -6 0
5 -16 -6 0
5 -17 -6 0
5 -18 -6 0
5 -19 -6 0
5 -20 -6 0
5 -21 -6 0
5 -22 -6 0
5 -23 -6 0
5 -24 -6 0
5 -25 -6 0
5 -26 -6 0
5 -27 -6 0
5 -28 -6 0
5 -29 -6 0
5 -30 -6 0
5 -31 -6 0
5 -32 -6 0
5 -33 -6 0
5 -34 -6 0
5 2 -6 0
1 35 0
3 4 35 0
-1 -3 -35 0
-1 -4 -35 0
-5 36 0
7 8 9 10 11 12 13 14 15 16 17 18 19 20 21 22 23 24 25 26 27 28 29 30 31 32 33 34 -35 36 0
6 36 0
5 -7 -6 -36 0
5 -8 -6 -36 0
5 -9 -6 -36 0
5 -10 -6 -36 0
5 -11 -6 -36 0
5 -12 -6 -36 0
5 -13 -6 -36 0
5 -14 -6 -36 0
5 -15 -6 -36 0
5 -16 -6 -36 0
5 -17 -6 -36 0
5 -18 -6 -36 0
5 -19 -6 -36 0
5 -20 -6 -36 0
5 -21 -6 -36 0
5 -22 -6 -36 0
5 -23 -6 -36 0
5 -24 -6 -36 0
5 -25 -6 -36 0
5 -26 -6 -36 0
5 -27 -6 -36 0
5 -28 -6 -36 0
5 -29 -6 -36 0
5 -30 -6 -36 0
5 -31 -6 -36 0
5 -32 -6 -36 0
5 -33 -6 -36 0
5 -34 -6 -36 0
5 35 -6 -36 0
-7 37 0
-8 37 0
-9 37 0
-10 37 0
-11 37 0
-12 37 0
-13 37 0
-14 37 0
-15 37 0
-16 37 0
-17 37 0
-18 37 0
-19 37 0
-20 37 0
-21 37 0
-22 37 0
-23 37 0
-24 37 0
-25 37 0
-26 37 0
-27 37 0
-28 37 0
-29 37 0
-30 37 0
-31 37 0
-32 37 0
-33 37 0
-34 37 0
-1 -3 -4 37 0
1 7 8 9 10 11 12 13 14 15 16 17 18 19 20 21 22 23 24 25 26 27 28 29 30 31 32 33 34 -37 0
3 7 8 9 10 11 12 13 14 15 16 17 18 19 20 21 22 23 24 25 26 27 28 29 30 31 32 33 34 -37 0
4 7 8 9 10 11 12 13 14 15 16 17 18 19 20 21 22 23 24 25 26 27 28 29 30 31 32 33 34 -37 0
-5 38 0
7 8 9 10 11 12 13 14 15 16 17 18 19 20 21 22 23 24 25 26 27 28 29 30 31 32 33 34 -35 38 0
37 38 0
5 -7 -37 -38 0
5 -8 -37 -38 0
5 -9 -37 -38 0
5 -10 -37 -38 0
5 -11 -37 -38 0
5 -12 -37 -38 0
5 -13 -37 -38 0
5 -14 -37 -38 0
5 -15 -37 -38 0
5 -16 -37 -38 0
5 -17 -37 -38 0
5 -18 -37 -38 0
5 -19 -37 -38 0
5 -20 -37 -38 0
5 -21 -37 -38 0
5 -22 -37 -38 0
5 -23 -37 -38 0
5 -24 -37 -38 0
5 -25 -37 -38 0
5 -26 -37 -38 0
5 -27 -37 -38 0
5 -28 -37 -38 0
5 -29 -37 -38 0
5 -30 -37 -38 0
5 -31 -37 -38 0
5 -32 -37 -38 0
5 -33 -37 -38 0
5 -34 -37 -38 0
5 35 -37 -38 0
1 39 0
3 4 39 0
-1 -3 -39 0
-1 -4 -39 0
5 -7 -36 -38 0
5 -8 -36 -38 0
5 -9 -36 -38 0
5 -10 -36 -38 0
5 -11 -36 -38 0
5 -12 -36 -38 0
5 -13 -36 -38 0
5 -14 -36 -38 0
5 -15 -36 -38 0
5 -16 -36 -38 0
5 -17 -36 -38 0
5 -18 -36 -38 0
5 -19 -36 -38 0
5 -20 -36 -38 0
5 -21 -36 -38 0
5 -22 -36 -38 0
5 -23 -36 -38 0
5 -24 -36 -38 0
5 -25 -36 -38 0
5 -26 -36 -38 0
5 -27 -36 -38 0
5 -28 -36 -38 0
5 -29 -36 -38 0
5 -30 -36 -38 0
5 -31 -36 -38 0
5 -32 -36 -38 0
5 -33 -36 -38 0
5 -34 -36 -38 0
5 -36 -38 39 0
5 -7 -38 0
5 -8 -38 0
5 -9 -38 0
5 -10 -38 0
5 -11 -38 0
5 -12 -38 0
5 -13 -38 0
5 -14 -38 0
5 -15 -38 0
5 -16 -38 0
5 -17 -38 0
5 -18 -38 0
5 -19 -38 0
5 -20 -38 0
5 -21 -38 0
5 -22 -38 0
5 -23 -38 0
5 -24 -38 0
5 -25 -38 0
5 -26 -38 0
5 -27 -38 0
5 -28 -38 0
5 -29 -38 0
5 -30 -38 0
5 -31 -38 0
5 -32 -38 0
5 -33 -38 0
5 -34 -38 0
5 39 -38 0
c 3 k!0
c 4 k!1
c 1 k!2
c 7 k!3
c 8 k!4
c 9 k!5
c 10 k!6
c 11 k!7
c 12 k!8
c 13 k!9
c 14 k!10
c 15 k!11
c 16 k!12
c 17 k!13
c 18 k!14
c 19 k!15
c 20 k!16
c 21 k!17
c 22 k!18
c 23 k!19
c 24 k!20
c 25 k!21
c 26 k!22
c 27 k!23
c 28 k!24
c 29 k!25
c 30 k!26
c 31 k!27
c 32 k!28
c 33 k!29
c 34 k!30
c 5 k!31
c 2 k!32
c 6 k!33
c 35 k!34
c 36 k!35
c 37 k!36
c 38 k!37
c 39 k!38